Z3/prácticasParejas/data2.dzn
%datafile
VALOR = 150;
dureza = [8.8, 6.1, 5.0, 4.2, 2.0];
precios = [| 110, 120, 115, 110, 130
           | 130, 130, 115,  90, 110
           | 110, 140,  95, 100, 130
           | 120, 110, 125, 120, 120
           | 100, 120, 105, 110, 150
           |  90, 100, 135,  80, 140 |];

MAXV = 200;
MAXN = 250;

MCAP = 1000;

CA = 5;

MinD = 3.0;
MaxD = 6.0; 
MinB = 100000;

inicial = [500, 500, 500, 500, 500];
PV = 10;

K=5;
T=30