Z3/prácticasParejas/SMT/Datos/data2.txt
2 
3
6 
150 
7 5.1 5.0 4.2 2.0 
110 120 115 110 130
130 130 115  90 110
110 140  95 100 130
120 110 125 120 120
100 120 105 110 150
90 100 135  80 140   
200 
250 
1000 
5 
2.0 
5.0  
100000 
500 500 500 500 500 
10 
5 
30